p cnf 7230 17
-5827 -5828 0
-4480 -5651 5825 0
-2064 -5641 -5823 0
-2780 -5639 -5821 0
4480 -5826 0
2064 -5824 0
2780 -5822 0
-5825 5826 0
5823 5824 0
5821 5822 0
5651 -5826 0
5641 -5824 0
5639 -5822 0
-5649 5828 0
5819 5820 0
-5819 -5820 0
5649 -5828 0
